Set parameter TokenServer to value "hpc-licenses.hpcc.usc.edu"
Set parameter TimeLimit to value 3600
Gurobi Optimizer version 9.5.1 build v9.5.1rc2 (linux64)
Thread count: 20 physical cores, 20 logical processors, using up to 20 threads
Optimize a model with 6007 rows, 4529 columns and 24534 nonzeros
Model fingerprint: 0x3709f155
Variable types: 4506 continuous, 23 integer (23 binary)
Coefficient statistics:
  Matrix range     [1e+00, 1e+00]
  Objective range  [2e-03, 1e+00]
  Bounds range     [1e+00, 1e+00]
  RHS range        [1e+00, 8e+01]
Found heuristic solution: objective 278.5278279
Presolve removed 1520 rows and 1515 columns
Presolve time: 0.06s
Presolved: 4487 rows, 3014 columns, 21975 nonzeros
Variable types: 2994 continuous, 20 integer (20 binary)

Root relaxation: objective 2.858474e+02, 2489 iterations, 0.11 seconds (0.12 work units)

    Nodes    |    Current Node    |     Objective Bounds      |     Work
 Expl Unexpl |  Obj  Depth IntInf | Incumbent    BestBd   Gap | It/Node Time

     0     0  285.84739    0    2  278.52783  285.84739  2.63%     -    0s
H    0     0                     285.5247150  285.84739  0.11%     -    0s
     0     0  285.83527    0    5  285.52472  285.83527  0.11%     -    0s
     0     0  285.83527    0    2  285.52472  285.83527  0.11%     -    0s
     0     0  285.81373    0    5  285.52472  285.81373  0.10%     -    0s
     0     0  285.53985    0    5  285.52472  285.53985  0.01%     -    1s

Cutting planes:
  Gomory: 5
  Implied bound: 72
  MIR: 90
  Flow cover: 113
  Relax-and-lift: 25

Explored 1 nodes (4185 simplex iterations) in 1.50 seconds (0.46 work units)
Thread count was 20 (of 20 available processors)

Solution count 2: 285.525 278.528 

Optimal solution found (tolerance 1.00e-04)
Best objective 2.855247150402e+02, best bound 2.855398506682e+02, gap 0.0053%



#########node  1
V1.8
#########node  2
0.1414141414141414,0.8585858585858586
#########node  3
1.0,0.0


Total Solving Time 1.946178674697876
obj value 285.5247150401948
Policy Regret train (Sum) 3.4466623243982886
Best Treatment Found train (%) 75.4
treatment classification acc train (%) 37.8
Policy Regret test (Sum) 33.68478658989411
Best Treatment Found test (%) 82.75
treatment classification acc test (%) 40.58
